
Gurobi 11.0.1 (linux64, Java) logging started Sa 30 Mär 2024 20:13:41


Gurobi 11.0.1 (linux64, Java) logging started Sa 30 Mär 2024 20:15:56


Gurobi 11.0.1 (linux64, Java) logging started Mi 03 Apr 2024 21:01:27


Gurobi 11.0.1 (linux64) logging started Mi 03 Apr 2024 21:03:18

Set parameter LogFile to value "LP.log"

Gurobi 11.0.1 (linux64, Java) logging started Mi 03 Apr 2024 21:03:40


Gurobi 11.0.1 (linux64, Java) logging started Mi 03 Apr 2024 21:06:52


Gurobi 11.0.1 (linux64, Java) logging started Fr 05 Apr 2024 17:35:00


Gurobi 11.0.1 (linux64, Java) logging started Fr 05 Apr 2024 18:39:09


Gurobi 11.0.1 (linux64, Java) logging started Fr 05 Apr 2024 18:58:56


Gurobi 11.0.1 (linux64, Java) logging started Fr 05 Apr 2024 19:01:01


Gurobi 11.0.1 (linux64, Java) logging started Fr 05 Apr 2024 19:09:06


Gurobi 11.0.1 (linux64, Java) logging started Fr 05 Apr 2024 19:09:31


Gurobi 11.0.1 (linux64, Java) logging started Fr 05 Apr 2024 19:10:25


Gurobi 11.0.1 (linux64, Java) logging started Fr 05 Apr 2024 19:11:18


Gurobi 11.0.1 (win64, Java) logging started Fri Apr  5 19:15:33 2024


Gurobi 11.0.1 (linux64, Java) logging started Fr 05 Apr 2024 19:30:55


Gurobi 11.0.1 (linux64, Java) logging started Fr 05 Apr 2024 19:31:22


Gurobi 11.0.1 (linux64, Java) logging started Fr 05 Apr 2024 19:57:33


Gurobi 11.0.1 (win64, Java) logging started Fri Apr  5 20:01:15 2024


Gurobi 11.0.1 (linux64, Java) logging started Fr 05 Apr 2024 20:03:45


Gurobi 11.0.1 (linux64, Java) logging started Fr 05 Apr 2024 20:57:51


Gurobi 11.0.1 (linux64, Java) logging started Fr 05 Apr 2024 21:55:12


Gurobi 11.0.1 (linux64, Java) logging started So 07 Apr 2024 17:49:28


Gurobi 11.0.1 (linux64, Java) logging started So 07 Apr 2024 17:51:33


Gurobi 11.0.1 (linux64, Java) logging started So 07 Apr 2024 17:53:18


Gurobi 11.0.1 (linux64, Java) logging started So 07 Apr 2024 17:53:41


Gurobi 11.0.1 (linux64, Java) logging started So 07 Apr 2024 17:54:33


Gurobi 11.0.1 (linux64, Java) logging started So 07 Apr 2024 17:55:00


Gurobi 11.0.1 (linux64, Java) logging started So 07 Apr 2024 17:55:15


Gurobi 11.0.1 (linux64, Java) logging started So 07 Apr 2024 17:55:22


Gurobi 11.0.1 (linux64, Java) logging started So 07 Apr 2024 17:55:55


Gurobi 11.0.1 (linux64, Java) logging started So 07 Apr 2024 17:56:07


Gurobi 11.0.1 (linux64, Java) logging started Di 09 Apr 2024 10:36:06


Gurobi 11.0.1 (linux64, Java) logging started Di 09 Apr 2024 21:08:20


Gurobi 11.0.1 (linux64, Java) logging started Di 09 Apr 2024 21:08:49


Gurobi 11.0.1 (linux64, Java) logging started Di 09 Apr 2024 21:09:09


Gurobi 11.0.1 (linux64, Java) logging started Di 09 Apr 2024 21:11:42


Gurobi 11.0.1 (linux64, Java) logging started Di 09 Apr 2024 21:11:54


Gurobi 11.0.1 (linux64, Java) logging started Di 09 Apr 2024 21:12:33


Gurobi 11.0.1 (linux64, Java) logging started Di 09 Apr 2024 21:12:50


Gurobi 11.0.1 (linux64, Java) logging started Di 09 Apr 2024 21:13:38


Gurobi 11.0.1 (linux64, Java) logging started Di 09 Apr 2024 21:15:25


Gurobi 11.0.1 (linux64, Java) logging started Mi 10 Apr 2024 16:59:32


Gurobi 11.0.1 (linux64, Java) logging started Mi 10 Apr 2024 17:00:01


Gurobi 11.0.1 (linux64, Java) logging started Mi 10 Apr 2024 20:03:01


Gurobi 11.0.1 (linux64, Java) logging started Mi 10 Apr 2024 21:24:12


Gurobi 11.0.1 (linux64, Java) logging started Mi 10 Apr 2024 21:31:37


Gurobi 11.0.1 (linux64, Java) logging started Do 11 Apr 2024 14:42:58


Gurobi 11.0.1 (linux64, Java) logging started Do 11 Apr 2024 14:43:48


Gurobi 11.0.1 (linux64, Java) logging started Do 11 Apr 2024 14:45:01


Gurobi 11.0.1 (linux64, Java) logging started Do 11 Apr 2024 14:46:37


Gurobi 11.0.1 (linux64, Java) logging started Do 11 Apr 2024 18:23:44


Gurobi 11.0.1 (linux64, Java) logging started Do 11 Apr 2024 18:27:24


Gurobi 11.0.1 (linux64, Java) logging started Do 11 Apr 2024 18:30:59


Gurobi 11.0.1 (linux64, Java) logging started Do 11 Apr 2024 18:31:32


Gurobi 11.0.1 (linux64, Java) logging started Do 11 Apr 2024 18:32:53


Gurobi 11.0.1 (linux64, Java) logging started Do 11 Apr 2024 18:36:48


Gurobi 11.0.1 (linux64, Java) logging started Do 11 Apr 2024 18:38:42


Gurobi 11.0.1 (linux64, Java) logging started Do 11 Apr 2024 18:39:36


Gurobi 11.0.1 (linux64, Java) logging started Do 11 Apr 2024 18:39:47


Gurobi 11.0.1 (linux64, Java) logging started Do 11 Apr 2024 18:40:14

